c Random generated cnf formula, satisfiable: true
p cnf 10 50
3 4 9 0
5 3 -1 0
6 -10 -3 0
5 6 -8 0
-1 8 5 0
-6 -10 -5 0
2 8 -9 0
-4 3 -8 0
8 -6 2 0
7 1 4 0
3 1 -5 0
1 9 -2 0
-9 5 8 0
-9 4 -7 0
-5 -4 -6 0
2 10 -9 0
5 -2 9 0
-2 7 -6 0
-5 -10 -3 0
8 6 10 0
10 4 -6 0
-3 -4 -1 0
10 -5 7 0
1 -10 5 0
9 3 5 0
-2 4 5 0
6 2 -7 0
10 -3 -1 0
2 5 4 0
2 -4 5 0
3 -10 7 0
10 5 -3 0
-5 -1 -8 0
7 -6 10 0
2 -4 -1 0
-9 -8 -4 0
-6 4 5 0
1 -2 8 0
10 -3 -2 0
-4 9 -2 0
-7 1 5 0
-3 2 -10 0
1 5 3 0
6 -2 -3 0
7 2 1 0
-9 -8 -3 0
5 -4 8 0
3 7 -1 0
8 -2 4 0
6 3 2 0
